
Gurobi 6.0.4 (win64) logging started 06/16/15 10:58:11

Read LP format model from file E:\Eigene Dateien\Downloads\Michi shit\VRPTWMS-master\VRPTWMS\instances\mip\fuel\N8-C_DV100-C_SV25_F5_7_No_1.lp
Reading time = 0.00 seconds
(null): 417 rows, 208 columns, 1715 nonzeros
Optimize a model with 417 rows, 208 columns and 1715 nonzeros
Model has 576 quadratic constraints
WARNING: Only barrier available for SOCP models
Coefficient statistics:
  Matrix range    [1e+00, 1e+06]
  Objective range [2e+04, 1e+07]
  Bounds range    [1e+00, 1e+06]
  RHS range       [1e+00, 1e+06]
Presolve removed 38 rows and 20 columns
Presolve time: 0.03s
Presolved: 1360 rows, 703 columns, 6650 nonzeros
Variable types: 466 continuous, 237 integer (194 binary)
Optimize a model with 1360 rows, 703 columns and 6650 nonzeros
Coefficient statistics:
  Matrix range    [1e+00, 1e+06]
  Objective range [2e+04, 1e+07]
  Bounds range    [1e+00, 1e+06]
  RHS range       [1e+00, 1e+06]

Concurrent LP optimizer: dual simplex and barrier
Showing barrier log only...

Presolve removed 136 rows and 89 columns
Presolved: 1224 rows, 617 columns, 6034 nonzeros

Root barrier log...

Ordering time: 0.01s

Barrier performed 0 iterations in 0.06 seconds
Barrier solve interrupted - model solved by another algorithm


Solved with dual simplex
Solved in 90 iterations and 0.06 seconds
Optimal objective  2.111713070e+06

Root relaxation: objective 2.111713e+06, 90 iterations, 0.02 seconds

    Nodes    |    Current Node    |     Objective Bounds      |     Work
 Expl Unexpl |  Obj  Depth IntInf | Incumbent    BestBd   Gap | It/Node Time

     0     0 2111713.07    0   33          - 2111713.07      -     -    0s
     0     0 1.1494e+07    0   18          - 1.1494e+07      -     -    0s
     0     0 1.1517e+07    0   26          - 1.1517e+07      -     -    0s
     0     0 1.1591e+07    0   28          - 1.1591e+07      -     -    0s
     0     0 1.1591e+07    0   28          - 1.1591e+07      -     -    0s
     0     0 1.1591e+07    0   29          - 1.1591e+07      -     -    0s
H    0     0                    3.321130e+07 1.1591e+07  65.1%     -    0s
     0     0 1.1591e+07    0   23 3.3211e+07 1.1591e+07  65.1%     -    0s
     0     0 1.1591e+07    0   21 3.3211e+07 1.1591e+07  65.1%     -    0s
     0     0 1.1591e+07    0   22 3.3211e+07 1.1591e+07  65.1%     -    0s
H    0     0                    3.285850e+07 1.1591e+07  64.7%     -    0s
     0     0 1.1591e+07    0   20 3.2859e+07 1.1591e+07  64.7%     -    0s
     0     0 1.1591e+07    0   20 3.2859e+07 1.1591e+07  64.7%     -    0s
     0     0 1.1591e+07    0   20 3.2859e+07 1.1591e+07  64.7%     -    0s
     0     2 1.1591e+07    0   20 3.2859e+07 1.1591e+07  64.7%     -    0s
H  119    95                    3.285260e+07 1.1685e+07  64.4%  23.1    0s
H  161   120                    3.276420e+07 1.1685e+07  64.3%  22.5    0s
*  236   127              24    3.268130e+07 1.1700e+07  64.2%  22.0    0s
H  603   300                    3.224010e+07 1.1893e+07  63.1%  21.5    0s
H  882   426                    3.219470e+07 1.2012e+07  62.7%  21.1    0s
H  891   428                    3.218440e+07 1.2012e+07  62.7%  21.1    0s
  4775   662 infeasible   34      3.2184e+07 1.6098e+07  50.0%  35.6    5s
*10001  1147              33    3.215780e+07 2.1863e+07  32.0%  41.3    8s
*10369  1218              42    3.214280e+07 2.1914e+07  31.8%  41.6    8s
*11388  1280              32    3.213250e+07 2.2001e+07  31.5%  42.2    9s
 11884  1274 infeasible   26      3.2133e+07 2.2029e+07  31.4%  42.4   10s
 17934   550 infeasible   27      3.2133e+07 2.2586e+07  29.7%  46.5   15s

Cutting planes:
  Gomory: 4
  Implied bound: 6
  Clique: 5
  MIR: 4
  Flow cover: 5
  Zero half: 12

Explored 19002 nodes (890401 simplex iterations) in 15.62 seconds
Thread count was 4 (of 4 available processors)

Optimal solution found (tolerance 1.00e-04)
Best objective 3.213250000000e+07, best bound 3.213250000000e+07, gap 0.0%
k_c1	40000.0
k_c2	60000.0
k_c3	1000000.0
k_c4	950000.0
k_c5	89999.99999999999
k_c6	30000.0
k_c7	70000.0
k_c8	890000.0
k_dN	-0.0
o_1	-0.0
o_2	-0.0
o_3	-0.0
o_4	-0.0
o_5	-0.0
o_6	-0.0
o_7	-0.0
o_8	-0.0
p_1	0.0
p_2	1.0
p_3	0.0
p_4	0.0
p_5	0.0
p_6	-0.0
p_7	0.0
p_8	0.0
phi_c1	7391.999999999995
phi_c2	-0.0
phi_c3	42434.0
phi_c4	29909.999999999967
phi_c5	23253.99999999999
phi_c6	25288.0
phi_c7	31984.0
phi_c8	26009.99999999999
phi_dN	-0.0
pi_c1	-0.0
pi_c2	50000.0
pi_c3	-0.0
pi_c4	-0.0
pi_c5	-0.0
pi_c6	-0.0
pi_c7	-0.0
pi_c8	-0.0
pi_dN	-0.0
tauD_c1	850000.0
tauD_c2	300000.0
tauD_c3	100000.0
tauD_c4	181000.0
tauD_c5	650000.0000000001
tauD_c6	650000.0
tauD_c7	67325.0
tauD_c8	400000.0
tauD_d0	-0.0
tauD_dN	1000000.0
tauS_c1	-0.0
tauS_c2	47550.0
tauS_c3	30625.0
tauS_c4	34825.0
tauS_c5	860725.0000000001
tauS_c6	808275.0
tauS_c7	74100.0
tauS_c8	850675.0
tauS_d0	-0.0
tauS_dN	618150.0
x_c1_dN	1.0
x_c2_c6	1.0
x_c3_c4	1.0
x_c4_c8	1.0
x_c5_c1	1.0
x_c6_dN	1.0
x_c7_c2	1.0
x_c8_c5	1.0
x_d0_c3	1.0
x_d0_c7	1.0
z_c2_dN	1.0
z_d0_c2	1.0
